Translating instance to solver...

GLPSOL: GLPK LP/MIP Solver, v4.65
Parameter(s) specified in the command line:
 --tmlim 36000 --mipgap 0.01 --write C:\Users\LUCASP~1\AppData\Local\Temp\tmpr0g9388l.glpk.raw
 --wglp C:\Users\LUCASP~1\AppData\Local\Temp\tmpxinev1oy.glpk.glp --cpxlp
 C:\Users\LUCASP~1\AppData\Local\Temp\tmpwai3y8xh.pyomo.lp
Reading problem data from 'C:\Users\LUCASP~1\AppData\Local\Temp\tmpwai3y8xh.pyomo.lp'...
C:\Users\LUCASP~1\AppData\Local\Temp\tmpwai3y8xh.pyomo.lp:235617: warning: lower bound of variable 'x1' redefined
C:\Users\LUCASP~1\AppData\Local\Temp\tmpwai3y8xh.pyomo.lp:235617: warning: upper bound of variable 'x1' redefined
38224 rows, 24526 columns, 96320 non-zeros
24525 integer variables, 24501 of which are binary
260118 lines were read
Writing problem data to 'C:\Users\LUCASP~1\AppData\Local\Temp\tmpxinev1oy.glpk.glp'...
178981 lines were written
GLPK Integer Optimizer, v4.65
38224 rows, 24526 columns, 96320 non-zeros
24525 integer variables, 24501 of which are binary
Preprocessing...
238 hidden packing inequaliti(es) were detected
4462 hidden covering inequaliti(es) were detected
172 constraint coefficient(s) were reduced
17962 rows, 8130 columns, 46553 non-zeros
8130 integer variables, 8107 of which are binary
Scaling...
 A: min|aij| =  1.000e+00  max|aij| =  2.900e+01  ratio =  2.900e+01
GM: min|aij| =  4.372e-01  max|aij| =  2.287e+00  ratio =  5.231e+00
EQ: min|aij| =  2.325e-01  max|aij| =  1.000e+00  ratio =  4.300e+00
2N: min|aij| =  2.500e-01  max|aij| =  1.438e+00  ratio =  5.750e+00
Constructing initial basis...
Size of triangular part is 17961
Solving LP relaxation...
GLPK Simplex Optimizer, v4.65
17962 rows, 8130 columns, 46553 non-zeros
      0: obj =   0.000000000e+00 inf =   1.035e+02 (175)
Perturbing LP to avoid stalling [736]...
    999: obj =   5.505357936e+00 inf =   1.494e-14 (0) 4
Removing LP perturbation [1711]...
*  1711: obj =   6.117820000e-01 inf =   5.738e-13 (0) 4
OPTIMAL LP SOLUTION FOUND
Integer optimization begins...
Long-step dual simplex will be used
+  1711: mip =     not found yet >=              -inf        (1; 0)
+  2757: mip =     not found yet >=   6.117820000e-01        (9; 0)
+  2760: mip =     not found yet >=   6.117820000e-01        (12; 0)
+  2812: mip =     not found yet >=   6.117820000e-01        (16; 0)
+  2871: mip =     not found yet >=   6.117820000e-01        (22; 0)
+  3630: mip =     not found yet >=   6.117820000e-01        (25; 1)
+  3706: mip =     not found yet >=   6.117820000e-01        (25; 1)
+  3710: mip =     not found yet >=   6.117820000e-01        (27; 1)
+  3743: mip =     not found yet >=   6.117820000e-01        (30; 1)
+  3747: mip =     not found yet >=   6.117820000e-01        (31; 1)
+  3757: mip =     not found yet >=   6.117820000e-01        (33; 1)
Time used: 60.2 secs.  Memory used: 30.0 Mb.
+  3770: mip =     not found yet >=   6.117820000e-01        (35; 1)
+  3986: mip =     not found yet >=   6.117820000e-01        (41; 2)
+  4800: mip =     not found yet >=   6.117820000e-01        (47; 2)
+  5042: mip =     not found yet >=   6.117820000e-01        (69; 2)
+  5409: mip =     not found yet >=   6.117820000e-01        (75; 2)
+  5422: mip =     not found yet >=   6.117820000e-01        (88; 2)
+  5500: mip =     not found yet >=   6.117820000e-01        (104; 2)
+  5871: mip =     not found yet >=   6.117820000e-01        (107; 3)
+  6548: mip =     not found yet >=   6.117820000e-01        (110; 4)
+  6565: mip =     not found yet >=   6.117820000e-01        (125; 4)
Time used: 120.4 secs.  Memory used: 30.8 Mb.
+  6821: mip =     not found yet >=   6.117820000e-01        (139; 4)
+  6874: mip =     not found yet >=   6.117820000e-01        (144; 4)
+  6911: mip =     not found yet >=   6.117820000e-01        (150; 4)
+  7277: mip =     not found yet >=   6.117820000e-01        (156; 5)
+  8198: mip =     not found yet >=   6.117820000e-01        (174; 8)
+  8753: mip =     not found yet >=   6.117820000e-01        (181; 9)
+  8834: mip =     not found yet >=   6.117820000e-01        (184; 9)
+  8851: mip =     not found yet >=   6.117820000e-01        (187; 9)
+  8911: mip =     not found yet >=   6.117820000e-01        (192; 9)
+  8926: mip =     not found yet >=   6.117820000e-01        (197; 9)
+  8986: mip =     not found yet >=   6.117820000e-01        (199; 9)
Time used: 180.6 secs.  Memory used: 31.3 Mb.
+  9768: mip =     not found yet >=   6.117820000e-01        (207; 11)
+ 10011: mip =     not found yet >=   6.117820000e-01        (215; 11)
+ 10251: >>>>>   1.985544000e+00 >=   6.117820000e-01  69.2% (231; 11)
+ 10499: mip =   1.985544000e+00 >=   6.117820000e-01  69.2% (192; 88)
+ 10521: mip =   1.985544000e+00 >=   6.117820000e-01  69.2% (194; 88)
+ 10582: mip =   1.985544000e+00 >=   6.117820000e-01  69.2% (197; 88)
+ 11280: mip =   1.985544000e+00 >=   6.117820000e-01  69.2% (202; 89)
+ 11615: mip =   1.985544000e+00 >=   6.117820000e-01  69.2% (208; 90)
+ 11950: mip =   1.985544000e+00 >=   6.117820000e-01  69.2% (229; 91)
+ 12127: mip =   1.985544000e+00 >=   6.117820000e-01  69.2% (249; 92)
Time used: 241.0 secs.  Memory used: 32.5 Mb.
+ 12531: mip =   1.985544000e+00 >=   6.117820000e-01  69.2% (272; 94)
+ 13004: mip =   1.985544000e+00 >=   6.117820000e-01  69.2% (273; 95)
+ 13046: mip =   1.985544000e+00 >=   6.117820000e-01  69.2% (276; 95)
+ 13058: mip =   1.985544000e+00 >=   6.117820000e-01  69.2% (279; 95)
+ 13150: mip =   1.985544000e+00 >=   6.117820000e-01  69.2% (283; 95)
+ 13547: mip =   1.985544000e+00 >=   6.117820000e-01  69.2% (285; 96)
+ 13565: mip =   1.985544000e+00 >=   6.117820000e-01  69.2% (287; 96)
+ 13594: mip =   1.985544000e+00 >=   6.117820000e-01  69.2% (290; 96)
+ 13676: mip =   1.985544000e+00 >=   6.117820000e-01  69.2% (294; 96)
+ 13738: mip =   1.985544000e+00 >=   6.117820000e-01  69.2% (297; 96)
Time used: 301.3 secs.  Memory used: 32.9 Mb.
+ 13875: mip =   1.985544000e+00 >=   6.117820000e-01  69.2% (304; 96)
+ 13916: mip =   1.985544000e+00 >=   6.117820000e-01  69.2% (304; 96)
+ 13925: mip =   1.985544000e+00 >=   6.117820000e-01  69.2% (304; 96)
+ 13932: mip =   1.985544000e+00 >=   6.117820000e-01  69.2% (304; 96)
+ 13944: mip =   1.985544000e+00 >=   6.117820000e-01  69.2% (311; 96)
+ 14046: mip =   1.985544000e+00 >=   6.117820000e-01  69.2% (320; 96)
+ 14477: mip =   1.985544000e+00 >=   6.117820000e-01  69.2% (325; 97)
+ 15163: mip =   1.985544000e+00 >=   6.117820000e-01  69.2% (328; 97)
+ 15604: mip =   1.985544000e+00 >=   6.117820000e-01  69.2% (329; 98)
+ 15611: mip =   1.985544000e+00 >=   6.117820000e-01  69.2% (334; 98)
+ 15954: mip =   1.985544000e+00 >=   6.117820000e-01  69.2% (339; 98)
Time used: 361.6 secs.  Memory used: 33.5 Mb.
+ 16000: mip =   1.985544000e+00 >=   6.117820000e-01  69.2% (342; 98)
+ 16356: mip =   1.985544000e+00 >=   6.117820000e-01  69.2% (352; 99)
+ 17028: mip =   1.985544000e+00 >=   6.117820000e-01  69.2% (363; 100)
+ 17079: mip =   1.985544000e+00 >=   6.117820000e-01  69.2% (365; 100)
+ 17089: mip =   1.985544000e+00 >=   6.117820000e-01  69.2% (368; 100)
+ 17353: mip =   1.985544000e+00 >=   6.117820000e-01  69.2% (378; 100)
+ 17945: mip =   1.985544000e+00 >=   6.117820000e-01  69.2% (382; 102)
+ 18338: mip =   1.985544000e+00 >=   6.117820000e-01  69.2% (396; 103)
+ 18355: mip =   1.985544000e+00 >=   6.117820000e-01  69.2% (396; 103)
+ 18807: mip =   1.985544000e+00 >=   6.117820000e-01  69.2% (403; 104)
+ 19047: mip =   1.985544000e+00 >=   6.117820000e-01  69.2% (405; 104)
Time used: 421.7 secs.  Memory used: 35.2 Mb.
+ 19060: mip =   1.985544000e+00 >=   6.117820000e-01  69.2% (406; 104)
+ 19070: mip =   1.985544000e+00 >=   6.117820000e-01  69.2% (416; 104)
+ 19093: mip =   1.985544000e+00 >=   6.117820000e-01  69.2% (433; 104)
+ 19671: mip =   1.985544000e+00 >=   6.117820000e-01  69.2% (447; 106)
+ 20317: mip =   1.985544000e+00 >=   6.117820000e-01  69.2% (451; 107)
+ 20323: mip =   1.985544000e+00 >=   6.117820000e-01  69.2% (455; 107)
+ 20345: mip =   1.985544000e+00 >=   6.117820000e-01  69.2% (462; 107)
